12 32 9 10
15 5 2 12 12 17 18 9 12 10 17 8 2 14 15 2 9 18 12 15 14 6 19 7 19 8 6 2 6 13 18 6 
9.86 14.59 12.78 7.5 11.75 9.49 9.03 5.49 9.62 2.08 7.16 5.29 11.12 4.35 2.09 11.25 5.57 11.21 3.96 13.62 3.59 14.39 14.78 7.89 15.43 12.14 6.16 0 12.92 11.28 2.75 12.99 
4.08 14.61 4.93 6.36 1.45 15.19 1.03 6.11 6.54 13.65 12.22 3.4 0.05 9.96 15.94 2.85 0.21 15.44 0.34 3.59 3.98 15.91 5.39 0.01 1.7 5 1.35 14.15 5.77 13.9 11.22 0.18 
13.07 1.48 11.87 7.61 6.05 11.31 13.67 4.78 15.32 13.13 12.49 1.87 8.73 3.15 15.73 0.04 13.23 6.23 10.24 5.28 10.73 12.77 8.97 15.46 7.81 0.39 14.12 12.24 14.26 10.78 0.92 12.98 
1.86 14.26 8.93 1.75 14.77 8.37 6.27 10.81 1.69 15.06 5.12 9.46 14.02 14.67 7.91 7.96 12.5 8.84 14.99 13 6.51 7.66 10.8 15.7 15.44 12.25 3.55 10.78 1.25 7.29 9.72 10.53 
11.48 15.61 4.92 14.78 4.85 4.1 13.31 5.47 13.14 9.76 3.67 2.78 14.82 9.52 5.19 4.49 8.48 11.4 10.83 1.89 4.13 4.58 14.61 12.4 7.44 3.04 5.85 10.37 5.19 2.95 5.05 6.33 
0.02 7.21 2.78 5.31 6.84 7.02 2.5 4.14 14.08 14.29 11.23 0.51 15.06 3.56 13.85 11.72 2.76 13.71 7.35 8.48 4.37 1.55 15.4 14.85 12.83 4.69 14.83 15.24 2.94 9.02 7.05 12.51 
7.01 9.63 6.92 7.1 4.1 1.57 8.46 12.72 4.22 12.45 1.11 13.61 7.22 9.74 11.64 10.7 13.66 3.69 10.59 9.49 14.4 15.43 14.82 9.91 6.05 10.21 7.52 2.56 2.31 1.69 0.05 2.63 
11.93 4.15 13.13 15.97 1.07 5.46 13.42 10.84 3.15 14.67 11.32 14.61 1.77 10.5 4.24 0.73 10.37 10.44 8.12 4.74 4.75 4.52 3.78 9.03 11.17 11.3 0.19 1.03 4.13 13.92 3.14 3.33 
5.05 14.1 3.34 4.01 8.84 15.98 2.9 1.67 9.3 14 8.52 6.74 12.94 5.6 1.83 15.61 12.92 1.24 2.14 6.98 9.58 6.02 8.39 12.71 12.52 13.14 11.21 4.3 12.84 5.9 6.07 9.05 
8 8 8 8 8 8 8 8 8 8 8 8 8 8 8 8 8 8 8 8 8 8 8 8 8 8 8 8 8 8 8 8 
4.4 12.98 6.1 9.13 7.11 11.66 14.88 4.76 9.24 15.57 6.64 9.88 8.74 1.16 2.75 13.77 7.34 13.79 1.65 15.03 8.24 14.34 6.79 14.04 10.11 11.73 5.26 1.91 10.52 14.01 6.51 10.76 
12.94 8.29 14.34 8.43 2.93 11.62 14.59 13.12 6.25 7.01 14.6 10.04 12.68 2.85 1.34 5.02 11.48 4.11 5.99 9.42 7.39 5.44 2.49 6.85 4.81 8.8 10.1 10.51 3.73 9.17 15.62 13.57 
1 1 1 1 1 1 1 1 1 1 1 1 1 1 1 1 1 1 1 1 1 1 1 1 1 1 1 1 1 1 1 1 
1 1 1 1 1 1 1 1 1 1 1 1 1 1 1 1 1 1 1 1 1 1 1 1 1 1 1 1 1 1 1 1 
1 1 1 1 1 1 1 1 1 1 1 1 1 1 1 1 1 1 1 1 1 1 1 1 1 1 1 1 1 1 1 1 
1 1 1 1 1 1 1 1 1 1 1 1 1 1 1 1 1 1 1 1 1 1 1 1 1 1 1 1 1 1 1 1 
1 1 1 1 1 1 1 1 1 1 1 1 1 1 1 1 1 1 1 1 1 1 1 1 1 1 1 1 1 1 1 1 
1 1 1 1 1 1 1 1 1 1 1 1 1 1 1 1 1 1 1 1 1 1 1 1 1 1 1 1 1 1 1 1 
1 1 1 1 1 1 1 1 1 1 1 1 1 1 1 1 1 1 1 1 1 1 1 1 1 1 1 1 1 1 1 1 
1 1 1 1 1 1 1 1 1 1 1 1 1 1 1 1 1 1 1 1 1 1 1 1 1 1 1 1 1 1 1 1 
1 1 1 1 1 1 1 1 1 1 1 1 1 1 1 1 1 1 1 1 1 1 1 1 1 1 1 1 1 1 1 1 
1 1 1 1 1 1 1 1 1 1 1 1 1 1 1 1 1 1 1 1 1 1 1 1 1 1 1 1 1 1 1 1 
1 1 1 1 1 1 1 1 1 1 1 1 1 1 1 1 1 1 1 1 1 1 1 1 1 1 1 1 1 1 1 1 
1 1 1 1 1 1 1 1 1 1 1 1 1 1 1 1 1 1 1 1 1 1 1 1 1 1 1 1 1 1 1 1 
0.01 0.01 0.01 0.01 0.01 0.01 0.01 0.01 0.01 0.01 0.01 0.01 0.01 0.01 0.01 0.01 0.01 0.01 0.01 0.01 0.01 0.01 0.01 0.01 0.01 0.01 0.01 0.01 0.01 0.01 0.01 0.01 
0.02 0.02 0.02 0.02 0.02 0.02 0.02 0.02 0.02 0.02 0.02 0.02 0.02 0.02 0.02 0.02 0.02 0.02 0.02 0.02 0.02 0.02 0.02 0.02 0.02 0.02 0.02 0.02 0.02 0.02 0.02 0.02 
0.03 0.03 0.03 0.03 0.03 0.03 0.03 0.03 0.03 0.03 0.03 0.03 0.03 0.03 0.03 0.03 0.03 0.03 0.03 0.03 0.03 0.03 0.03 0.03 0.03 0.03 0.03 0.03 0.03 0.03 0.03 0.03 
0.04 0.04 0.04 0.04 0.04 0.04 0.04 0.04 0.04 0.04 0.04 0.04 0.04 0.04 0.04 0.04 0.04 0.04 0.04 0.04 0.04 0.04 0.04 0.04 0.04 0.04 0.04 0.04 0.04 0.04 0.04 0.04 
0.05 0.05 0.05 0.05 0.05 0.05 0.05 0.05 0.05 0.05 0.05 0.05 0.05 0.05 0.05 0.05 0.05 0.05 0.05 0.05 0.05 0.05 0.05 0.05 0.05 0.05 0.05 0.05 0.05 0.05 0.05 0.05 
0.06 0.06 0.06 0.06 0.06 0.06 0.06 0.06 0.06 0.06 0.06 0.06 0.06 0.06 0.06 0.06 0.06 0.06 0.06 0.06 0.06 0.06 0.06 0.06 0.06 0.06 0.06 0.06 0.06 0.06 0.06 0.06 
0.07 0.07 0.07 0.07 0.07 0.07 0.07 0.07 0.07 0.07 0.07 0.07 0.07 0.07 0.07 0.07 0.07 0.07 0.07 0.07 0.07 0.07 0.07 0.07 0.07 0.07 0.07 0.07 0.07 0.07 0.07 0.07 
0.08 0.08 0.08 0.08 0.08 0.08 0.08 0.08 0.08 0.08 0.08 0.08 0.08 0.08 0.08 0.08 0.08 0.08 0.08 0.08 0.08 0.08 0.08 0.08 0.08 0.08 0.08 0.08 0.08 0.08 0.08 0.08 
0.09 0.09 0.09 0.09 0.09 0.09 0.09 0.09 0.09 0.09 0.09 0.09 0.09 0.09 0.09 0.09 0.09 0.09 0.09 0.09 0.09 0.09 0.09 0.09 0.09 0.09 0.09 0.09 0.09 0.09 0.09 0.09 
0.1 0.1 0.1 0.1 0.1 0.1 0.1 0.1 0.1 0.1 0.1 0.1 0.1 0.1 0.1 0.1 0.1 0.1 0.1 0.1 0.1 0.1 0.1 0.1 0.1 0.1 0.1 0.1 0.1 0.1 0.1 0.1 
0.5 0.5 0.5 0.5 0.5 0.5 0.5 0.5 0.5 0.5 0.5 0.5 0.5 0.5 0.5 0.5 0.5 0.5 0.5 0.5 0.5 0.5 0.5 0.5 0.5 0.5 0.5 0.5 0.5 0.5 0.5 0.5 
1 1 1 1 1 1 1 1 1 1 1 1 1 1 1 1 1 1 1 1 1 1 1 1 1 1 1 1 1 1 1 1 
